* #variable= 6 #constraint= 17
*
* Synchronization bits problem
*
+1 x1 +1 x2 = 0;
+1 x5 +1 x6 +1 x5 +1 x6 +1 x5 >= 1;
+1 x6 +1 x5 +1 x6 +1 x5 +1 x6 >= 1;
+1 x5 -1 x1 <= 0;
+1 x5 -1 x2 <= 0;
+1 x6 -1 x2 <= 0;
+1 x6 -1 x1 <= 0;
-1 x5 -1 x3-1 x4 >= -2;
-1 x5 +1 x3 +1 x4 >= 0;
-1 x6 -1 x4-1 x3 >= -2;
-1 x6 +1 x4 +1 x3 >= 0;
+1 x1 = 1;
+1 x3 = 1;
+1 x5 = 1;
+1 x1 -1 x3 >= 0;
+1 x2 -1 x4 >= 0;
+1 x3 +1 x4  <= 0;
